# Solution for model GasLib-40
# Objective value = 1.0410433838321479e+01
loadshed[innode_1] 0
loadshed[innode_2] 0
loadshed[innode_3] 0
loadshed[innode_4] 0
loadshed[innode_5] 0
loadshed[innode_6] 0
loadshed[innode_7] 0
loadshed[innode_8] 0
loadshed[source_1] -1.9655803470055311e-01
loadshed[source_2] -2.7905863159717326e-02
loadshed[source_3] 2.9031509367477448e-01
loadshed[sink_1] 0
loadshed[sink_2] 0
loadshed[sink_3] 0
loadshed[sink_4] 0
loadshed[sink_5] 0
loadshed[sink_6] 0
loadshed[sink_7] 0
loadshed[sink_8] 0
loadshed[sink_9] 0
loadshed[sink_10] 0
loadshed[sink_11] 0
loadshed[sink_12] 6.3656155954067639e-01
loadshed[sink_13] 0
loadshed[sink_14] 0
loadshed[sink_15] 0
loadshed[sink_16] 0
loadshed[sink_17] 0
loadshed[sink_18] 0
loadshed[sink_19] 0
loadshed[sink_20] 0
loadshed[sink_21] 0
loadshed[sink_22] 0
loadshed[sink_23] 0
loadshed[sink_24] 0
loadshed[sink_25] 0
loadshed[sink_26] 0
loadshed[sink_27] 0
loadshed[sink_28] 0
loadshed[sink_29] 0
flow[source_1,sink_3] 1.8916419208304228e+02
flow[innode_1,sink_16] 1.6354166666666970e+01
flow[innode_6,sink_13] 2.28488269101598
flow[sink_13,sink_14] -1.4069283975650688e+01
flow[sink_14,sink_10] -3.0423450642317391e+01
flow[sink_25,sink_26] 1.6320794341903934e+02
flow[sink_26,sink_9] 1.3049961008570338e+02
flow[sink_9,sink_18] 1.1414544341903671e+02
flow[sink_26,sink_4] 16.3541666666693
flow[sink_4,sink_20] 0
flow[sink_18,sink_6] 9.7791276752370038e+01
flow[sink_25,innode_8] -1.5645585874970590e+02
flow[sink_6,sink_7] 4.8728776752369413e+01
flow[sink_6,sink_22] 3.2708333333333641e+01
flow[sink_7,sink_24] 3.8652066161678526e+01
flow[sink_22,sink_1] 1.6354166666666970e+01
flow[sink_24,sink_21] 2.2297899495011855e+01
flow[sink_21,sink_12] 5.9437328283451887e+00
flow[sink_7,sink_5] -6.2774560759756355e+00
flow[sink_5,sink_17] -2.2631622742642207e+01
flow[sink_17,sink_4] 0
flow[sink_17,sink_8] -3.8985789409308964e+01
flow[sink_3,sink_23] 16.3541666666697
flow[sink_8,sink_20] -5.5339956075975635e+01
flow[sink_25,sink_20] 7.1694122742642321e+01
flow[sink_25,sink_15] -9.7085256769658258e+01
flow[sink_15,sink_29] -6.3188730403722843e+01
flow[sink_29,sink_28] 1.6354166666667879e+01
flow[sink_29,sink_2] 6.6604859699268786e+01
flow[sink_2,sink_15] 5.0250693032602044e+01
flow[sink_29,innode_7] -1.6250192343632614e+02
flow[innode_4,sink_19] 0
flow[sink_19,innode_3] 3.8788808403435723e+01
flow[innode_4,innode_5] 1.1219428397565110e+02
flow[sink_27,innode_5] -1.1219428397565110e+02
flow[sink_27,sink_19] 9.5840117308984432e+01
flow[sink_10,sink_11] 3.2708333333333641e+01
flow[sink_10,innode_2] -4.0697142238882009e+01
flow[sink_10,innode_3] -3.8788808403435723e+01
flow[innode_6,sink_25] -2.28488269101598
flow[sink_11,innode_1] 1.6354166666666970e+01
flow[sink_19,innode_2] 4.0697142238882009e+01
flow[source_3,innode_4] 1.1219428397565110e+02
flow[source_2,innode_7] 1.6250192343632614e+02
flow[sink_3,innode_8] 1.5645585874970590e+02
pressure[innode_1] 7.5644635543789960e+01
pressure[innode_2] 7.7947348903420831e+01
pressure[innode_3] 7.7861455479567482e+01
pressure[innode_4] 81.01325
pressure[innode_5] 8.0936076855458637e+01
pressure[innode_6] 74.3447683493022
pressure[innode_7] 81.01325
pressure[innode_8] 8.0380946369207024e+01
pressure[source_1] 81.01325
pressure[source_2] 81.01325
pressure[source_3] 81.01325
pressure[sink_1] 4.6196872049755441e+01
pressure[sink_2] 7.4979783884306130e+01
pressure[sink_3] 8.0380946369207024e+01
pressure[sink_4] 6.0770817664535976e+01
pressure[sink_5] 5.0239764599376073e+01
pressure[sink_6] 4.8297949660142812e+01
pressure[sink_7] 4.7629019707156829e+01
pressure[sink_8] 5.3396692024638732e+01
pressure[sink_9] 5.5039390267157685e+01
pressure[sink_10] 75.7963368513935
pressure[sink_11] 7.5644635543789960e+01
pressure[sink_12] 1.0132500000000007e+00
pressure[sink_13] 74.332172172866
pressure[sink_14] 7.4357350354978422e+01
pressure[sink_15] 7.4815726446629043e+01
pressure[sink_16] 7.4622985708972280e+01
pressure[sink_17] 5.1925656907635179e+01
pressure[sink_18] 5.0909267912325646e+01
pressure[sink_19] 7.7947348903420831e+01
pressure[sink_20] 5.7253108702332504e+01
pressure[sink_21] 3.1283554420900352e+00
pressure[sink_22] 4.7260641192110448e+01
pressure[sink_23] 8.0216228357547237e+01
pressure[sink_24] 3.3752839617778765e+00
pressure[sink_25] 74.3447683493022
pressure[sink_26] 6.2850128741009172e+01
pressure[sink_27] 8.0005071611206418e+01
pressure[sink_28] 7.6371677875014768e+01
pressure[sink_29] 7.6666960148631944e+01
interdiction[source_1,sink_3] 0
interdiction[innode_1,sink_16] 0
interdiction[innode_6,sink_13] 0
interdiction[sink_13,sink_14] 0
interdiction[sink_14,sink_10] 0
interdiction[sink_25,sink_26] 0
interdiction[sink_26,sink_9] 0
interdiction[sink_9,sink_18] 0
interdiction[sink_26,sink_4] 0
interdiction[sink_4,sink_20] 1
interdiction[sink_18,sink_6] 0
interdiction[sink_25,innode_8] 0
interdiction[sink_6,sink_7] 0
interdiction[sink_6,sink_22] 0
interdiction[sink_7,sink_24] 0
interdiction[sink_22,sink_1] 0
interdiction[sink_24,sink_21] 0
interdiction[sink_21,sink_12] 0
interdiction[sink_7,sink_5] 0
interdiction[sink_5,sink_17] 0
interdiction[sink_17,sink_4] 1
interdiction[sink_17,sink_8] 0
interdiction[sink_3,sink_23] 0
interdiction[sink_8,sink_20] 0
interdiction[sink_25,sink_20] 0
interdiction[sink_25,sink_15] 0
interdiction[sink_15,sink_29] 0
interdiction[sink_29,sink_28] 0
interdiction[sink_29,sink_2] 0
interdiction[sink_2,sink_15] 0
interdiction[sink_29,innode_7] 0
interdiction[innode_4,sink_19] 1
interdiction[sink_19,innode_3] 0
interdiction[innode_4,innode_5] 0
interdiction[sink_27,innode_5] 0
interdiction[sink_27,sink_19] 0
interdiction[sink_10,sink_11] 0
interdiction[sink_10,innode_2] 0
interdiction[sink_10,innode_3] 0
interdiction[innode_6,sink_25] 0
interdiction[sink_11,innode_1] 0
interdiction[sink_19,innode_2] 0
interdiction[source_3,innode_4] 0
interdiction[source_2,innode_7] 0
interdiction[sink_3,innode_8] 0
WCcheckFlow[source_1,sink_3] 39
WCcheckFlow[innode_1,sink_16] 1
WCcheckFlow[innode_6,sink_13] 13
WCcheckFlow[sink_13,sink_14] 12
WCcheckFlow[sink_14,sink_10] 11
WCcheckFlow[sink_25,sink_26] 15
WCcheckFlow[sink_26,sink_9] 13
WCcheckFlow[sink_9,sink_18] 12
WCcheckFlow[sink_26,sink_4] 1
WCcheckFlow[sink_4,sink_20] 0
WCcheckFlow[sink_18,sink_6] 11
WCcheckFlow[sink_25,innode_8] -36
WCcheckFlow[sink_6,sink_7] 8
WCcheckFlow[sink_6,sink_22] 2
WCcheckFlow[sink_7,sink_24] 3
WCcheckFlow[sink_22,sink_1] 1
WCcheckFlow[sink_24,sink_21] 2
WCcheckFlow[sink_21,sink_12] 1
WCcheckFlow[sink_7,sink_5] 4
WCcheckFlow[sink_5,sink_17] 3
WCcheckFlow[sink_17,sink_4] 0
WCcheckFlow[sink_17,sink_8] 2
WCcheckFlow[sink_3,sink_23] 1
WCcheckFlow[sink_8,sink_20] 1
WCcheckFlow[sink_25,sink_20] 0
WCcheckFlow[sink_25,sink_15] 6
WCcheckFlow[sink_15,sink_29] 5
WCcheckFlow[sink_29,sink_28] 1
WCcheckFlow[sink_29,sink_2] 1
WCcheckFlow[sink_2,sink_15] 0
WCcheckFlow[sink_29,innode_7] 2
WCcheckFlow[innode_4,sink_19] 0
WCcheckFlow[sink_19,innode_3] -5
WCcheckFlow[innode_4,innode_5] -2
WCcheckFlow[sink_27,innode_5] 3
WCcheckFlow[sink_27,sink_19] -4
WCcheckFlow[sink_10,sink_11] 3
WCcheckFlow[sink_10,innode_2] 1
WCcheckFlow[sink_10,innode_3] 6
WCcheckFlow[innode_6,sink_25] -14
WCcheckFlow[sink_11,innode_1] 2
WCcheckFlow[sink_19,innode_2] 0
WCcheckFlow[source_3,innode_4] -1
WCcheckFlow[source_2,innode_7] -1
WCcheckFlow[sink_3,innode_8] 37
